
Gurobi 9.5.2 (win64) logging started Mon Mar 27 20:25:21 2023

Set parameter LogFile to value "2023-03-27_20hr-25min-09sec/Nodes10_Arcs15_LocNodes8/Formulation-2Instance-1.log"
Set parameter TimeLimit to value 600
Set parameter IntFeasTol to value 1e-09
Set parameter DualReductions to value 0
Set parameter NonConvex to value 2
Gurobi Optimizer version 9.5.2 build v9.5.2rc0 (win64)
Thread count: 4 physical cores, 8 logical processors, using up to 8 threads
Optimize a model with 44 rows, 76 columns and 162 nonzeros
Model fingerprint: 0x27946ffe
Model has 25 quadratic objective terms
Model has 25 SOS constraints
Variable types: 68 continuous, 8 integer (8 binary)
Coefficient statistics:
  Matrix range     [9e-02, 2e+02]
  Objective range  [4e-02, 1e+03]
  QObjective range [2e-01, 8e+00]
  Bounds range     [1e+00, 1e+00]
  RHS range        [4e-02, 1e+03]
Presolve removed 1 rows and 1 columns
Presolve time: 0.00s
Presolved: 43 rows, 75 columns, 161 nonzeros
Presolved model has 25 SOS constraint(s)
Presolved model has 25 quadratic objective terms
Variable types: 67 continuous, 8 integer (8 binary)

Root relaxation: objective 3.055777e+04, 107 iterations, 0.00 seconds (0.00 work units)

    Nodes    |    Current Node    |     Objective Bounds      |     Work
 Expl Unexpl |  Obj  Depth IntInf | Incumbent    BestBd   Gap | It/Node Time

     0     0 30557.7707    0    7          - 30557.7707      -     -    0s
H    0     0                    29903.391998 30557.7707  2.19%     -    0s
H    0     0                    29988.129842 30557.7707  1.90%     -    0s
     0     0 30246.4739    0    7 29988.1298 30246.4739  0.86%     -    0s
H    0     0                    29989.396945 30246.4739  0.86%     -    0s
     0     0 30246.4739    0   14 29989.3969 30246.4739  0.86%     -    0s
     0     0 30219.4836    0   15 29989.3969 30219.4836  0.77%     -    0s
H    0     0                    30195.995363 30219.4836  0.08%     -    0s

Cutting planes:
  Implied bound: 2
  MIR: 1
  Flow cover: 13

Explored 1 nodes (234 simplex iterations) in 0.03 seconds (0.01 work units)
Thread count was 8 (of 8 available processors)

Solution count 3: 30196 29989.4 29903.4 

Optimal solution found (tolerance 1.00e-04)
Best objective 3.019599536276e+04, best bound 3.019881899564e+04, gap 0.0094%

User-callback calls 207, time in user-callback 0.00 sec
